
******************************************************************************
This program contains Ipopt, a library for large-scale nonlinear optimization.
 Ipopt is released as open source code under the Eclipse Public License (EPL).
         For more information visit http://projects.coin-or.org/Ipopt
******************************************************************************

This is Ipopt version 3.13.2, running with linear solver mumps.
NOTE: Other linear solvers might be more efficient (see Ipopt documentation).

Number of nonzeros in equality constraint Jacobian...:        0
Number of nonzeros in inequality constraint Jacobian.:     8450
Number of nonzeros in Lagrangian Hessian.............:        0

Total number of variables............................:     4225
                     variables with only lower bounds:        0
                variables with lower and upper bounds:     4225
                     variables with only upper bounds:        0
Total number of equality constraints.................:        0
Total number of inequality constraints...............:        2
        inequality constraints with only lower bounds:        2
   inequality constraints with lower and upper bounds:        0
        inequality constraints with only upper bounds:        0

iter    objective    inf_pr   inf_du lg(mu)  ||d||  lg(rg) alpha_du alpha_pr  ls
   0  1.8663436e-01 9.77e+00 3.04e-01  -1.0 0.00e+00    -  0.00e+00 0.00e+00   0
   1  1.8687785e-01 9.76e+00 7.66e+01  -1.0 3.52e+00    -  2.14e-01 2.81e-03f  1
   2  2.0184752e-01 9.50e+00 9.34e+01  -1.0 2.90e+00    -  9.55e-02 2.60e-02f  1
   3  2.0533675e-01 9.46e+00 2.04e+03  -1.0 1.86e+00    -  1.39e-01 4.67e-03f  1
   4  1.0902364e+00 4.15e+00 2.80e+02  -1.0 1.67e+00    -  3.48e-01 5.52e-01f  1
   5  3.8999434e+00 1.08e+00 9.65e+01  -1.0 4.73e-01    -  8.92e-01 1.00e+00f  1
   6  5.4134354e+00 7.04e-01 1.19e+03  -1.0 6.58e-01    -  9.00e-01 3.60e-01h  1
   7  8.8802150e+00 2.70e-01 4.58e+02  -1.0 4.32e-01    -  1.00e+00 6.28e-01h  1
   8  1.4313120e+01 8.57e-02 8.39e+01  -1.0 2.24e-01    -  1.00e+00 7.26e-01h  1
   9  1.6677944e+01 7.85e-03 9.34e+01  -1.0 2.52e-01    -  3.11e-01 1.00e+00h  1
iter    objective    inf_pr   inf_du lg(mu)  ||d||  lg(rg) alpha_du alpha_pr  ls
  10  1.4925507e+01 4.54e-03 1.96e+01  -1.0 8.27e-02    -  8.43e-01 8.85e-01f  1
  11  1.6465114e+01 2.27e-04 8.85e+00  -1.0 8.19e-02    -  1.00e+00 1.00e+00h  1
  12  1.6174019e+01 0.00e+00 3.16e+00  -1.0 2.26e-02    -  1.00e+00 1.00e+00f  1
  13  1.6442810e+01 0.00e+00 1.84e+00  -1.0 7.11e-03    -  1.00e+00 1.00e+00f  1
  14  1.6432952e+01 0.00e+00 1.82e+00  -1.0 3.07e-02    -  1.00e+00 1.00e+00f  1
  15  1.6062742e+01 0.00e+00 1.27e+00  -1.0 2.37e-02    -  1.00e+00 1.00e+00f  1
  16  1.5903285e+01 0.00e+00 1.28e+00  -1.0 4.53e-02    -  1.00e+00 1.00e+00f  1
  17  1.6108890e+01 0.00e+00 1.13e+00  -1.0 2.12e-02    -  1.00e+00 1.00e+00f  1
  18  1.6043241e+01 0.00e+00 1.68e+00  -1.0 2.01e-02    -  1.00e+00 1.00e+00f  1
  19  1.6111921e+01 0.00e+00 1.17e+00  -1.0 3.02e-02    -  1.00e+00 1.00e+00f  1
iter    objective    inf_pr   inf_du lg(mu)  ||d||  lg(rg) alpha_du alpha_pr  ls
  20  1.6007474e+01 0.00e+00 2.68e-01  -1.0 2.06e-02    -  1.00e+00 1.00e+00f  1
  21  1.2916694e+01 1.21e-03 2.18e+02  -1.7 1.26e-01    -  5.51e-01 1.00e+00f  1
  22  1.2094851e+01 2.88e-04 2.37e+00  -1.7 5.04e-02    -  1.00e+00 1.00e+00f  1
  23  1.1347321e+01 4.95e-04 2.46e+00  -1.7 6.95e-02    -  1.00e+00 1.00e+00f  1
  24  1.0963277e+01 1.69e-03 2.57e+00  -1.7 6.36e-02    -  1.00e+00 1.00e+00f  1
  25  1.1282473e+01 1.12e-03 7.27e-01  -1.7 4.74e-02    -  1.00e+00 1.00e+00f  1
  26  1.1411543e+01 1.61e-04 9.89e-01  -1.7 4.05e-02    -  1.00e+00 1.00e+00h  1
  27  1.1206605e+01 0.00e+00 5.48e-01  -1.7 1.41e-02    -  1.00e+00 1.00e+00f  1
  28  1.1312736e+01 0.00e+00 2.57e+00  -1.7 2.48e-02    -  1.00e+00 5.00e-01f  2
  29  1.1372763e+01 0.00e+00 5.21e-01  -1.7 2.70e-02    -  1.00e+00 1.00e+00f  1
iter    objective    inf_pr   inf_du lg(mu)  ||d||  lg(rg) alpha_du alpha_pr  ls
  30  1.1087363e+01 0.00e+00 5.69e-01  -1.7 3.79e-02    -  1.00e+00 1.00e+00f  1
  31  1.1031035e+01 0.00e+00 7.27e-01  -1.7 6.35e-02    -  1.00e+00 5.00e-01f  2
  32  1.1171307e+01 0.00e+00 3.49e-01  -1.7 1.98e-02    -  1.00e+00 1.00e+00f  1
  33  1.1109783e+01 0.00e+00 2.74e-01  -1.7 2.70e-02    -  1.00e+00 5.00e-01f  2
  34  1.1096930e+01 0.00e+00 8.69e-01  -1.7 1.80e-02    -  1.00e+00 5.00e-01f  2
  35  1.1047316e+01 0.00e+00 2.43e-01  -1.7 1.94e-02    -  1.00e+00 1.00e+00h  1
  36  1.1023357e+01 0.00e+00 1.57e-01  -1.7 1.09e-02    -  1.00e+00 1.00e+00f  1
  37  8.3497210e+00 1.88e-02 6.99e+01  -2.5 3.90e-01    -  3.33e-01 1.00e+00f  1
  38  7.2185030e+00 1.80e-02 4.74e+01  -2.5 1.39e-01    -  2.79e-01 1.00e+00f  1
  39  7.7077039e+00 3.44e-03 5.80e-01  -2.5 1.02e-01    -  1.00e+00 1.00e+00h  1
iter    objective    inf_pr   inf_du lg(mu)  ||d||  lg(rg) alpha_du alpha_pr  ls
  40  7.9187853e+00 1.63e-04 1.05e+00  -2.5 1.03e-01    -  6.97e-01 1.00e+00H  1
  41  7.5467081e+00 5.01e-03 4.70e-01  -2.5 4.12e-02    -  1.00e+00 1.00e+00f  1
  42  7.5415641e+00 5.74e-04 2.54e-01  -2.5 2.40e-02    -  1.00e+00 1.00e+00h  1
  43  7.5369196e+00 1.01e-04 2.11e-01  -2.5 1.39e-02    -  1.00e+00 1.00e+00h  1
  44  7.4259178e+00 1.17e-04 2.10e-01  -2.5 2.46e-02    -  1.00e+00 1.00e+00f  1
  45  7.2269449e+00 1.03e-03 4.02e-01  -2.5 1.00e-01    -  1.00e+00 1.00e+00f  1
  46  7.3204814e+00 0.00e+00 1.29e+00  -2.5 1.35e-01    -  1.00e+00 1.00e+00H  1
  47  7.1854477e+00 9.70e-04 5.01e-01  -2.5 1.84e-01    -  6.86e-01 5.00e-01f  2
  48  7.0405809e+00 1.48e-03 1.53e+00  -2.5 6.29e-02    -  7.31e-01 1.00e+00f  1
  49  7.0892266e+00 1.05e-03 5.30e-01  -2.5 3.81e-02    -  1.00e+00 1.00e+00h  1
iter    objective    inf_pr   inf_du lg(mu)  ||d||  lg(rg) alpha_du alpha_pr  ls
  50  7.0369380e+00 5.30e-04 1.17e-01  -2.5 3.41e-02    -  1.00e+00 1.00e+00f  1
  51  7.0516099e+00 1.81e-05 1.25e-01  -2.5 4.72e-03    -  1.00e+00 1.00e+00h  1
  52  7.0548528e+00 0.00e+00 6.13e-02  -2.5 5.66e-03    -  1.00e+00 1.00e+00h  1
  53  7.0292840e+00 1.30e-04 2.51e-01  -2.5 2.39e-02    -  1.00e+00 1.00e+00f  1
  54  7.0128008e+00 2.80e-04 1.88e-01  -2.5 4.05e-02    -  1.00e+00 1.00e+00f  1
  55  7.0187019e+00 5.67e-04 8.12e-01  -2.5 4.97e-02    -  1.00e+00 5.00e-01f  2
  56  6.9691250e+00 3.09e-04 1.47e-01  -2.5 3.87e-02    -  1.00e+00 1.00e+00f  1
  57  6.9279159e+00 3.42e-04 4.86e-01  -2.5 3.91e-02    -  1.00e+00 5.00e-01f  2
  58  6.8010744e+00 3.32e-04 2.36e-01  -2.5 4.65e-02    -  1.00e+00 1.00e+00f  1
  59  6.7796105e+00 4.55e-04 5.26e-01  -2.5 5.19e-02    -  1.00e+00 5.00e-01f  2
iter    objective    inf_pr   inf_du lg(mu)  ||d||  lg(rg) alpha_du alpha_pr  ls
  60  6.7599365e+00 5.76e-04 1.66e-01  -2.5 5.22e-02    -  1.00e+00 5.00e-01f  2
  61  6.7559510e+00 4.56e-04 5.47e-01  -2.5 6.57e-02    -  1.00e+00 5.00e-01f  2
  62  6.7226640e+00 2.97e-04 6.58e-01  -2.5 3.35e-02    -  1.00e+00 5.00e-01f  2
  63  6.6925320e+00 1.95e-04 3.06e-01  -2.5 7.16e-02    -  1.00e+00 5.00e-01f  2
  64  6.6163262e+00 3.28e-04 4.28e-01  -2.5 1.18e-01    -  1.00e+00 5.00e-01f  2
  65  6.5723507e+00 2.87e-04 1.81e-01  -2.5 3.75e-02    -  1.00e+00 5.00e-01f  2
  66  6.6241588e+00 8.88e-04 6.92e-01  -2.5 1.86e-01    -  1.00e+00 5.00e-01f  2
  67  6.5858429e+00 5.67e-04 5.16e-01  -2.5 3.75e-02    -  1.00e+00 5.00e-01f  2
  68  6.5052145e+00 5.30e-04 1.95e-01  -2.5 1.51e-01    -  1.00e+00 5.00e-01f  2
  69  6.4755871e+00 6.20e-04 3.12e-01  -2.5 4.82e-02    -  1.00e+00 1.00e+00w  1
iter    objective    inf_pr   inf_du lg(mu)  ||d||  lg(rg) alpha_du alpha_pr  ls
  70  6.4749035e+00 7.89e-04 2.72e-01  -2.5 3.09e-02    -  1.00e+00 1.00e+00f  1
  71  6.4338402e+00 4.43e-04 2.43e+00  -2.5 5.46e-02    -  1.00e+00 5.00e-01h  2
  72  6.4479551e+00 5.44e-05 2.06e-01  -2.5 1.76e-02    -  1.00e+00 1.00e+00h  1
  73  6.4393998e+00 5.05e-05 5.01e-01  -2.5 2.42e-02    -  1.00e+00 5.00e-01f  2
  74  6.4092400e+00 1.15e-04 2.53e-01  -2.5 2.86e-02    -  1.00e+00 5.00e-01f  2
  75  6.4088687e+00 1.12e-04 1.39e-01  -2.5 4.02e-02    -  1.00e+00 5.00e-01f  2
  76  6.3517610e+00 9.46e-05 1.86e-01  -2.5 2.77e-02    -  1.00e+00 1.00e+00f  1
  77  6.3758006e+00 1.89e-04 4.39e-01  -2.5 1.05e-01    -  1.00e+00 5.00e-01f  2
  78  6.3467084e+00 3.03e-04 2.10e-01  -2.5 2.94e-02    -  1.00e+00 1.00e+00f  1
  79  6.3156757e+00 3.14e-04 1.74e-01  -2.5 4.93e-02    -  1.00e+00 1.00e+00f  1
iter    objective    inf_pr   inf_du lg(mu)  ||d||  lg(rg) alpha_du alpha_pr  ls
  80  6.2943040e+00 2.53e-04 8.73e-01  -2.5 4.83e-02    -  1.00e+00 5.00e-01f  2
  81  6.2801925e+00 1.30e-04 4.46e-01  -2.5 4.88e-02    -  1.00e+00 5.00e-01h  2
  82  6.2804147e+00 7.90e-05 2.75e-01  -2.5 3.62e-02    -  1.00e+00 5.00e-01h  2
  83  6.2727417e+00 2.37e-05 2.02e-01  -2.5 4.55e-02    -  1.00e+00 5.00e-01h  2
  84  6.1971901e+00 2.56e-04 2.23e-01  -2.5 6.26e-02    -  1.00e+00 1.00e+00f  1
  85  6.2150667e+00 2.77e-04 3.80e-01  -2.5 1.20e-01    -  1.00e+00 2.50e-01f  3
  86  6.1884764e+00 2.90e-04 1.87e-01  -2.5 5.36e-02    -  1.00e+00 1.00e+00f  1
  87  6.1790572e+00 2.39e-04 3.13e-01  -2.5 2.31e-02    -  1.00e+00 5.00e-01f  2
  88  6.1751423e+00 7.69e-05 1.36e-01  -2.5 3.53e-02    -  1.00e+00 1.00e+00f  1
  89  6.1556284e+00 7.87e-05 1.07e-01  -2.5 4.39e-02    -  1.00e+00 5.00e-01f  2
iter    objective    inf_pr   inf_du lg(mu)  ||d||  lg(rg) alpha_du alpha_pr  ls
  90  6.1499828e+00 9.64e-05 1.11e-01  -2.5 3.84e-02    -  1.00e+00 1.00e+00f  1
  91  6.1322945e+00 2.03e-04 5.27e-01  -2.5 9.98e-02    -  1.00e+00 5.00e-01f  2
  92  6.1141169e+00 6.65e-05 1.72e-01  -2.5 3.67e-02    -  1.00e+00 1.00e+00f  1
  93  6.0924738e+00 8.08e-05 1.17e-01  -2.5 4.44e-02    -  1.00e+00 5.00e-01f  2
  94  6.1290051e+00 2.33e-05 8.04e-02  -2.5 2.07e-02    -  1.00e+00 1.00e+00h  1
  95  6.1222844e+00 2.06e-05 3.04e-01  -2.5 4.18e-02    -  1.00e+00 5.00e-01f  2
  96  6.0745256e+00 7.72e-05 1.73e-01  -2.5 4.46e-02    -  1.00e+00 5.00e-01f  2
  97  6.0751274e+00 1.13e-04 1.28e-01  -2.5 3.05e-02    -  1.00e+00 1.00e+00f  1
  98  6.0683169e+00 4.82e-05 5.75e-01  -2.5 2.30e-02    -  1.00e+00 5.00e-01h  2
  99  6.0882149e+00 3.05e-05 9.76e-02  -2.5 2.06e-02    -  1.00e+00 1.00e+00h  1
iter    objective    inf_pr   inf_du lg(mu)  ||d||  lg(rg) alpha_du alpha_pr  ls
 100  6.0692844e+00 0.00e+00 1.43e-01  -2.5 1.56e-02    -  1.00e+00 1.00e+00H  1
 101  6.0536142e+00 9.36e-05 9.58e-02  -2.5 1.78e-02    -  1.00e+00 1.00e+00f  1
 102  6.0519201e+00 4.38e-05 1.34e-01  -2.5 2.12e-02    -  1.00e+00 1.00e+00h  1
 103  6.0598611e+00 0.00e+00 3.09e-02  -2.5 9.70e-03    -  1.00e+00 1.00e+00h  1
 104  6.0514410e+00 0.00e+00 4.62e-02  -2.5 7.71e-03    -  1.00e+00 1.00e+00h  1
 105  6.0409477e+00 0.00e+00 5.99e-02  -2.5 1.29e-02    -  1.00e+00 1.00e+00h  1
 106  6.0449075e+00 0.00e+00 7.97e-02  -2.5 3.90e-02    -  1.00e+00 5.00e-01f  2
 107  6.0475826e+00 0.00e+00 7.31e-02  -2.5 1.99e-02    -  1.00e+00 5.00e-01f  2
 108  6.0496067e+00 0.00e+00 7.94e-02  -2.5 2.48e-02    -  1.00e+00 1.00e+00f  1
 109  6.0210473e+00 3.21e-05 1.51e-01  -2.5 1.71e-02    -  1.00e+00 1.00e+00f  1
iter    objective    inf_pr   inf_du lg(mu)  ||d||  lg(rg) alpha_du alpha_pr  ls
 110  6.0167947e+00 5.88e-05 9.87e-02  -2.5 2.12e-02    -  1.00e+00 1.00e+00f  1
 111  6.0250582e+00 4.95e-05 7.05e-02  -2.5 1.85e-02    -  1.00e+00 1.00e+00h  1
 112  6.0316878e+00 7.48e-07 9.64e-02  -2.5 9.57e-03    -  1.00e+00 1.00e+00h  1
 113  5.9949471e+00 1.06e-06 9.59e-02  -2.5 8.98e-03    -  1.00e+00 1.00e+00h  1
 114  6.0119280e+00 0.00e+00 8.06e-02  -2.5 1.15e-02    -  1.00e+00 1.00e+00h  1
 115  6.0123262e+00 0.00e+00 1.98e-02  -2.5 8.17e-03    -  1.00e+00 1.00e+00h  1
 116  5.3762245e+00 4.77e-03 7.45e+00  -3.8 2.96e-02    -  6.46e-01 1.00e+00f  1
 117  5.0116405e+00 3.83e-03 2.19e+00  -3.8 7.94e-02    -  7.66e-01 9.68e-01f  1
 118  4.6615996e+00 6.50e-03 1.71e+00  -3.8 2.78e-01    -  1.65e-01 3.56e-01f  1
 119  4.5189541e+00 6.16e-03 1.32e+00  -3.8 3.20e-01    -  2.85e-01 1.30e-01f  1
iter    objective    inf_pr   inf_du lg(mu)  ||d||  lg(rg) alpha_du alpha_pr  ls
 120  4.3663701e+00 6.09e-03 3.11e+00  -3.8 4.04e-01    -  3.13e-01 1.29e-01f  1
 121  4.1957263e+00 6.00e-03 4.64e+00  -3.8 3.83e-01    -  3.10e-01 1.51e-01f  1
 122  4.0283691e+00 6.24e-03 4.74e+00  -3.8 5.20e-01    -  1.95e-01 1.10e-01f  1
 123  3.8458622e+00 6.71e-03 4.22e+00  -3.8 6.72e-01    -  1.35e-01 1.26e-01f  1
 124  3.7224502e+00 6.66e-03 4.54e+00  -3.8 8.40e-01    -  1.66e-01 8.03e-02f  1
 125  3.5897761e+00 6.32e-03 5.17e+00  -3.8 9.06e-01    -  2.63e-01 9.43e-02f  1
 126  3.4230489e+00 6.99e-03 4.68e+00  -3.8 1.35e+00    -  1.20e-01 1.05e-01f  1
 127  3.3306302e+00 6.82e-03 4.72e+00  -3.8 1.10e+00    -  1.54e-01 7.28e-02f  1
 128  3.2050258e+00 6.99e-03 5.53e+00  -3.8 1.19e+00    -  3.33e-01 9.34e-02f  1
 129  3.0800290e+00 7.47e-03 5.24e+00  -3.8 1.01e+00    -  2.59e-01 1.24e-01f  1
iter    objective    inf_pr   inf_du lg(mu)  ||d||  lg(rg) alpha_du alpha_pr  ls
 130  2.9527151e+00 7.69e-03 5.00e+00  -3.8 9.74e-01    -  2.43e-01 1.40e-01f  1
 131  2.8283558e+00 9.09e-03 4.47e+00  -3.8 9.99e-01    -  2.54e-01 1.73e-01f  1
 132  2.7334516e+00 8.74e-03 4.07e+00  -3.8 8.03e-01    -  2.55e-01 1.70e-01f  1
 133  2.6825374e+00 8.49e-03 4.15e+00  -3.8 6.91e-01    -  2.53e-01 1.10e-01f  1
 134  2.6024383e+00 8.88e-03 3.43e+00  -3.8 6.58e-01    -  2.26e-01 2.00e-01f  1
 135  2.5551192e+00 9.23e-03 3.01e+00  -3.8 4.81e-01    -  1.66e-01 1.43e-01f  1
 136  2.5098985e+00 7.93e-03 2.45e+00  -3.8 4.11e-01    -  3.37e-01 2.71e-01f  1
 137  2.4688268e+00 8.11e-03 1.84e+00  -3.8 6.62e-01    -  2.53e-01 2.49e-01f  1
 138  2.4378729e+00 5.74e-03 1.13e+00  -3.8 3.29e-01    -  4.87e-01 4.38e-01f  1
 139  2.4077773e+00 5.31e-03 6.07e-01  -3.8 3.00e-01    -  4.63e-01 4.63e-01f  1
iter    objective    inf_pr   inf_du lg(mu)  ||d||  lg(rg) alpha_du alpha_pr  ls
 140  2.3737076e+00 6.98e-03 1.75e-01  -3.8 1.71e-01    -  3.77e-01 6.54e-01f  1
 141  2.4049119e+00 6.15e-04 2.27e-01  -3.8 1.27e-01    -  6.68e-01 8.96e-01H  1
 142  2.3489584e+00 5.07e-03 4.82e-01  -3.8 7.48e-02    -  3.52e-01 7.93e-01f  1
 143  2.3461239e+00 1.58e-03 5.26e-02  -3.8 4.41e-02    -  9.40e-01 1.00e+00h  1
 144  2.3509742e+00 1.96e-04 1.51e-02  -3.8 2.30e-02    -  1.00e+00 1.00e+00h  1
 145  2.3343715e+00 1.03e-03 3.13e-02  -3.8 1.52e-01    -  6.41e-01 4.41e-01f  1
 146  2.3150033e+00 2.86e-03 5.31e-02  -3.8 2.20e-01    -  4.73e-01 5.12e-01f  1
 147  2.2936347e+00 3.94e-03 7.18e-02  -3.8 1.41e-01    -  6.76e-01 5.79e-01f  1
 148  2.2677819e+00 8.28e-03 9.78e-02  -3.8 1.88e-01    -  3.18e-01 3.80e-01f  1
 149  2.2691395e+00 9.35e-03 4.37e-01  -3.8 7.86e-02    -  3.75e-01 9.91e-01f  1
iter    objective    inf_pr   inf_du lg(mu)  ||d||  lg(rg) alpha_du alpha_pr  ls
 150  2.2574801e+00 3.79e-03 1.04e-01  -3.8 5.87e-02    -  2.79e-01 1.00e+00h  1
 151  2.2667012e+00 4.45e-04 1.72e-02  -3.8 2.54e-02    -  1.00e+00 1.00e+00h  1
 152  2.2516763e+00 1.05e-03 5.16e-02  -3.8 6.51e-02    -  1.00e+00 9.99e-01h  1
 153  2.2320619e+00 1.98e-03 7.64e-02  -3.8 2.87e-01    -  6.46e-01 3.76e-01f  1
 154  2.2042613e+00 5.26e-03 1.29e-01  -3.8 4.15e-01    -  8.02e-01 4.24e-01f  1
 155  2.1745110e+00 6.92e-03 6.01e-02  -3.8 1.87e-01    -  3.97e-01 4.78e-01f  1
 156  2.1570842e+00 8.94e-03 2.62e-01  -3.8 1.05e-01    -  4.15e-01 6.25e-01f  1
 157  2.1650040e+00 3.27e-03 3.92e-02  -3.8 4.51e-02    -  1.00e+00 1.00e+00h  1
 158  2.1632841e+00 2.27e-04 2.45e-02  -3.8 2.62e-02    -  1.00e+00 1.00e+00h  1
 159  2.1499221e+00 7.80e-04 3.04e-01  -3.8 1.66e-01    -  9.16e-01 3.84e-01f  1
iter    objective    inf_pr   inf_du lg(mu)  ||d||  lg(rg) alpha_du alpha_pr  ls
 160  2.1335794e+00 1.29e-03 5.88e-02  -3.8 2.95e-01    -  7.61e-01 4.06e-01f  1
 161  2.1203641e+00 2.74e-03 9.48e-02  -3.8 4.08e-01    -  3.28e-01 4.11e-01f  1
 162  2.1079473e+00 2.92e-03 6.76e-02  -3.8 2.84e-01    -  5.30e-01 2.96e-01f  1
 163  2.1067379e+00 2.44e-03 1.90e-01  -3.8 1.45e-01    -  7.68e-01 4.04e-01f  1
 164  2.0972196e+00 2.93e-03 1.27e-01  -3.8 1.54e-01    -  8.11e-01 4.74e-01f  1
 165  2.0929746e+00 1.62e-03 3.78e-02  -3.8 6.74e-02    -  1.00e+00 8.19e-01f  1
 166  2.0913770e+00 1.77e-03 3.31e-02  -3.8 9.47e-02    -  1.00e+00 1.00e+00f  1
 167  2.0849514e+00 2.55e-03 1.58e-01  -3.8 5.88e-02    -  7.83e-01 1.00e+00h  1
 168  2.0785740e+00 1.15e-03 2.90e-02  -3.8 3.73e-02    -  1.00e+00 1.00e+00h  1
 169  2.0816032e+00 6.24e-04 2.30e-02  -3.8 2.46e-02    -  9.50e-01 1.00e+00h  1
iter    objective    inf_pr   inf_du lg(mu)  ||d||  lg(rg) alpha_du alpha_pr  ls
 170  2.0790925e+00 2.08e-04 1.12e-02  -3.8 1.24e-02    -  1.00e+00 1.00e+00h  1
 171  2.0805875e+00 7.10e-05 1.43e-02  -3.8 2.00e-02    -  1.00e+00 1.00e+00h  1
 172  2.0723363e+00 9.65e-05 1.86e-02  -3.8 7.99e-02    -  1.00e+00 1.00e+00h  1
 173  2.0636694e+00 5.71e-04 6.82e-02  -3.8 3.78e-01    -  9.82e-01 4.35e-01f  1
 174  2.0580546e+00 8.50e-04 5.69e-02  -3.8 2.53e-01    -  7.56e-01 3.49e-01f  1
 175  2.0517555e+00 6.19e-03 1.26e-01  -3.8 1.81e-01    -  1.00e+00 1.00e+00f  1
 176  2.0169805e+00 8.38e-03 1.09e-01  -3.8 6.73e-02    -  5.29e-01 1.00e+00h  1
 177  2.0377221e+00 3.04e-03 3.97e-01  -3.8 4.15e-02    -  1.00e+00 7.13e-01h  1
 178  2.0481134e+00 1.79e-04 1.35e-02  -3.8 2.85e-02    -  1.00e+00 1.00e+00h  1
 179  2.0460416e+00 4.28e-04 1.96e-02  -3.8 6.47e-02    -  1.00e+00 1.00e+00h  1
iter    objective    inf_pr   inf_du lg(mu)  ||d||  lg(rg) alpha_du alpha_pr  ls
 180  2.0451162e+00 1.18e-03 4.45e-02  -3.8 1.19e-01    -  1.00e+00 1.00e+00h  1
 181  2.0293608e+00 3.37e-03 2.65e-02  -3.8 6.94e-02    -  9.58e-01 1.00e+00h  1
 182  2.0318788e+00 1.63e-03 1.75e-02  -3.8 4.22e-02    -  1.00e+00 1.00e+00h  1
 183  2.0320664e+00 6.26e-04 2.33e-02  -3.8 3.32e-02    -  1.00e+00 1.00e+00h  1
 184  2.0311285e+00 4.11e-04 1.67e-02  -3.8 1.95e-02    -  1.00e+00 1.00e+00h  1
 185  2.0298355e+00 2.66e-04 1.08e-02  -3.8 2.04e-02    -  1.00e+00 1.00e+00h  1
 186  2.0295604e+00 1.47e-04 1.59e-02  -3.8 2.27e-02    -  1.00e+00 1.00e+00h  1
 187  2.0283539e+00 2.10e-04 1.65e-02  -3.8 3.45e-02    -  1.00e+00 1.00e+00h  1
 188  2.0275748e+00 6.56e-04 4.16e-02  -3.8 5.53e-02    -  1.00e+00 1.00e+00h  1
 189  2.0197384e+00 1.06e-03 2.62e-02  -3.8 3.62e-02    -  1.00e+00 1.00e+00h  1
iter    objective    inf_pr   inf_du lg(mu)  ||d||  lg(rg) alpha_du alpha_pr  ls
 190  2.0235774e+00 1.01e-03 1.58e-02  -3.8 2.84e-02    -  1.00e+00 1.00e+00h  1
 191  2.0193758e+00 1.83e-04 8.54e-03  -3.8 3.78e-02    -  1.00e+00 1.00e+00h  1
 192  2.0253759e+00 6.74e-06 7.96e-02  -3.8 1.01e-01    -  1.00e+00 1.00e+00H  1
 193  2.0072092e+00 2.01e-03 1.86e-02  -3.8 3.76e-02    -  1.00e+00 1.00e+00f  1
 194  2.0133605e+00 2.91e-04 7.48e-03  -3.8 1.46e-02    -  1.00e+00 1.00e+00h  1
 195  2.0121866e+00 2.49e-05 7.07e-03  -3.8 3.23e-02    -  1.00e+00 1.00e+00h  1
 196  2.0030466e+00 8.15e-05 2.22e-02  -3.8 1.75e-01    -  1.00e+00 6.92e-01f  1
 197  1.9907295e+00 5.15e-04 3.38e-02  -3.8 4.82e-01    -  1.00e+00 6.46e-01f  1
 198  1.9850361e+00 2.27e-03 3.56e-02  -3.8 2.50e-01    -  1.00e+00 1.00e+00f  1
 199  1.9791717e+00 2.12e-03 1.98e-02  -3.8 2.49e-01    -  5.94e-01 6.03e-01h  1
iter    objective    inf_pr   inf_du lg(mu)  ||d||  lg(rg) alpha_du alpha_pr  ls
 200  1.9763370e+00 2.12e-03 8.86e-02  -3.8 1.31e-01    -  8.29e-01 4.14e-01f  1

Number of Iterations....: 200

                                   (scaled)                 (unscaled)
Objective...............:   1.9763369810785032e+00    1.9763369810785032e+00
Dual infeasibility......:   8.8550253171234772e-02    8.8550253171234772e-02
Constraint violation....:   2.1197444188423920e-03    2.1197444188423920e-03
Complementarity.........:   4.4377180524141579e-04    4.4377180524141579e-04
Overall NLP error.......:   8.8550253171234772e-02    8.8550253171234772e-02


Number of objective function evaluations             = 351
Number of objective gradient evaluations             = 201
Number of equality constraint evaluations            = 0
Number of inequality constraint evaluations          = 351
Number of equality constraint Jacobian evaluations   = 0
Number of inequality constraint Jacobian evaluations = 201
Number of Lagrangian Hessian evaluations             = 0
Total CPU secs in IPOPT (w/o function evaluations)   =     39.549
Total CPU secs in NLP function evaluations           =    784.099

EXIT: Maximum Number of Iterations Exceeded.
